Maximize
  - 3.6220226541349 edge_0_1_0_0 - 2.2477270478384 edge_0_2_0_0
   - 0.17028188761388 edge_0_3_0_0 - 4.2079594950448 edge_0_5_0_0
   - 0.5098514732218 edge_0_10_0_0 - 0.869712 edge_0_16_0_0
   - 0.1543794725915827 edge_1_2_0_0 - 0.2094614637259427 edge_1_3_0_0
   + 0.0592611334122328 edge_2_1_0_0 + 0.86273402510945 edge_2_3_0_0
   + 0.0105532390272904 edge_2_4_0_0 + 0.7692960383788543 edge_2_5_0_0
   - 0.1219822104110691 edge_2_6_0_0 + 0.308863488147144 edge_2_7_0_0
   - 0.2040220272462887 edge_2_8_0_0 - 0.3780777037912758 edge_2_9_0_0
   - 0.1957724354835443 edge_2_10_0_0 - 0.1057426848860811 edge_2_13_0_0
   + 0.0736944120504213 edge_2_14_0_0 - 0.0475854386742655 edge_2_15_0_0
   - 0.6828501464363425 edge_2_16_0_0 - 0.7018576833977325 edge_2_17_0_0
   + 1.2718385628208 edge_2_18_0_0 + 1.630907053878734 edge_3_1_0_0
   + 2.5742370911088 edge_3_2_0_0 + 1.323468722412 edge_3_4_0_0
   + 2.9174996499 edge_3_5_0_0 + 1.521705708816069 edge_3_6_0_0
   + 2.644977449604 edge_3_7_0_0 + 0.8737709101671001 edge_3_8_0_0
   + 0.2536672666910135 edge_3_9_0_0 + 2.3178586180607 edge_3_10_0_0
   + 0.0867251919102176 edge_3_11_0_0 + 0.78947223885957 edge_3_12_0_0
   + 1.8742345272192 edge_3_13_0_0 + 2.9254550151021 edge_3_14_0_0
   + 3.5926823169338 edge_3_15_0_0 + 2.1089297469284 edge_3_16_0_0
   - 0.1499312746557534 edge_3_17_0_0 + 5.35319 edge_3_18_0_0
   - 0.6114909948081051 edge_4_1_0_0 - 0.4104534539227914 edge_4_2_0_0
   + 1.132688079956614 edge_4_5_0_0 + 0.4726405353111298 edge_4_6_0_0
   + 0.5280253959678123 edge_4_7_0_0 + 0.2120739317319151 edge_4_8_0_0
   - 0.25777790843827 edge_4_9_0_0 - 0.4996388237208163 edge_4_10_0_0
   - 1.534578067390169 edge_4_11_0_0 - 0.5087844206509136 edge_4_13_0_0
   - 0.3708816338238933 edge_5_1_0_0 - 0.0120886273094965 edge_5_2_0_0
   + 0.53990193521176 edge_5_3_0_0 + 3.047925770158464 edge_5_4_0_0
   + 0.7036876604203633 edge_5_6_0_0 + 2.151277008688593 edge_5_7_0_0
   + 1.156779054739883 edge_5_8_0_0 + 0.5970033681803091 edge_5_9_0_0
   + 1.156591012603783 edge_5_10_0_0 - 0.0573184981746131 edge_5_11_0_0
   + 0.4851010443491677 edge_5_13_0_0 + 1.202620038318818 edge_5_14_0_0
   + 0.7185164104419803 edge_5_15_0_0 + 0.5829012894964 edge_5_16_0_0
   - 0.0575952500971897 edge_5_17_0_0 + 1.249513514994337 edge_5_18_0_0
   - 0.3241812121835534 edge_6_1_0_0 - 0.2328756264251873 edge_6_2_0_0
   - 0.2907198160236847 edge_6_3_0_0 + 0.404664694026971 edge_6_4_0_0
   + 0.5299035121415305 edge_6_5_0_0 + 0.1918617922019409 edge_6_7_0_0
   - 0.205102057940202 edge_6_8_0_0 - 0.167295364807387 edge_6_9_0_0
   - 0.0483600096728809 edge_6_10_0_0 + 0.018401780772884 edge_6_13_0_0
   + 0.6538577627146173 edge_6_18_0_0 - 0.4162169439057521 edge_7_4_0_0
   - 0.2478204484174163 edge_7_5_0_0 - 0.5270138189426855 edge_7_6_0_0
   - 0.1687852709264886 edge_7_8_0_0 - 0.9542188956428939 edge_8_2_0_0
   - 0.3147009890630101 edge_8_3_0_0 - 0.4746457722979495 edge_8_4_0_0
   + 0.193533029885004 edge_8_5_0_0 - 0.6362710108977218 edge_8_6_0_0
   + 6.795147786602786e-04 edge_8_7_0_0 + 0.7319714283826863 edge_8_9_0_0
   + 0.8865761300518822 edge_8_10_0_0 - 0.1000605202602744 edge_8_11_0_0
   - 0.3332877855415687 edge_8_12_0_0 - 0.1329619020305794 edge_8_13_0_0
   - 0.0773118486911321 edge_8_14_0_0 + 0.1029525968378186 edge_8_15_0_0
   - 0.32586526208125 edge_8_16_0_0 - 0.3227791666788988 edge_8_17_0_0
   + 0.4644753093134176 edge_8_18_0_0 - 0.8038960259874939 edge_9_1_0_0
   - 0.2805488015150937 edge_9_3_0_0 - 0.1637310266861612 edge_9_4_0_0
   - 0.3741644923554001 edge_9_5_0_0 - 0.2094658974169631 edge_9_6_0_0
   - 0.1026287951642032 edge_9_7_0_0 + 0.3925424571231 edge_9_8_0_0
   + 0.3792393846973534 edge_9_10_0_0 - 0.3126224841311401 edge_9_11_0_0
   - 0.2051425950300456 edge_9_13_0_0 - 0.1106994819333802 edge_9_14_0_0
   - 0.3689293674430291 edge_9_15_0_0 - 1.0641636696494 edge_9_16_0_0
   - 0.504638858910132 edge_9_17_0_0 + 0.1292679236845035 edge_9_18_0_0
   + 0.7512338204624085 edge_10_1_0_0 + 0.1022137461955731 edge_10_2_0_0
   + 0.4167913209368266 edge_10_3_0_0 + 0.7976323014183235 edge_10_4_0_0
   + 0.8406562306703049 edge_10_5_0_0 + 0.2044856118480498 edge_10_6_0_0
   + 0.9494017491624577 edge_10_7_0_0 + 3.026031292425527 edge_10_8_0_0
   + 3.118365156466673 edge_10_9_0_0 + 0.697228256682118 edge_10_11_0_0
   + 0.8735394886230285 edge_10_12_0_0 + 3.196025270530259 edge_10_13_0_0
   + 2.109851731449588 edge_10_14_0_0 + 2.411865093637137 edge_10_15_0_0
   + 2.0847744801854 edge_10_16_0_0 + 0.3548296324744282 edge_10_17_0_0
   + 3.508835193579972 edge_10_18_0_0 + 0.2248749794247292 edge_11_13_0_0
   - 0.3743758178339235 edge_11_14_0_0 - 0.5594614090300047 edge_11_15_0_0
   - 1.187148498706972 edge_11_16_0_0 - 0.8899409111338289 edge_11_17_0_0
   + 1.34652747095417 edge_12_13_0_0 + 0.6294499715752622 edge_12_15_0_0
   - 0.165853590251655 edge_13_2_0_0 - 0.2821891760052 edge_13_3_0_0
   - 0.7478675720032731 edge_13_4_0_0 - 0.3449789867925278 edge_13_5_0_0
   - 0.2596109470870226 edge_13_6_0_0 + 0.1726689684577399 edge_13_7_0_0
   + 0.6395285609428135 edge_13_8_0_0 + 0.5262134184906113 edge_13_9_0_0
   + 0.4953868401471829 edge_13_10_0_0 + 2.496822824032325 edge_13_11_0_0
   + 2.998424324909005 edge_13_12_0_0 + 3.567502982948872 edge_13_13_0_0
   + 1.493037631743485 edge_13_14_0_0 + 1.099733930507346 edge_13_15_0_0
   + 1.030646866824361 edge_13_16_0_0 - 0.0531474599984983 edge_13_17_0_0
   + 1.1043167753856 edge_13_18_0_0 - 0.2625340386056578 edge_14_11_0_0
   - 0.3364512193348126 edge_14_13_0_0 + 0.5909930428525324 edge_14_15_0_0
   + 0.4538765733139201 edge_14_16_0_0 - 0.0467031695496441 edge_14_17_0_0
   - 0.9790145885001962 edge_15_11_0_0 - 0.5412294232917884 edge_15_13_0_0
   - 0.1050724978375923 edge_15_14_0_0 + 0.0528602819902977 edge_15_16_0_0
   + 0.184773251104964 edge_15_17_0_0 + 0.5303635696289932 edge_15_18_0_0
   - 0.42360255893894 edge_16_1_0_0 - 0.5005543743063178 edge_16_2_0_0
   - 0.5525799336903999 edge_16_3_0_0 - 1.163527634461467 edge_16_4_0_0
   - 0.7187108024574356 edge_16_5_0_0 + 0.0719644258730599 edge_16_7_0_0
   - 0.4354062263489932 edge_16_8_0_0 - 0.1381990316453295 edge_16_9_0_0
   + 0.565870606279939 edge_16_10_0_0 - 0.1335478645504396 edge_16_11_0_0
   - 0.6564677896097657 edge_16_12_0_0 - 0.0576052248796042 edge_16_13_0_0
   + 0.005268512747328 edge_16_14_0_0 + 0.32204067709968 edge_16_15_0_0
   + 2.6706507175692 edge_16_17_0_0 + 2.250849729897999 edge_16_18_0_0
   - 0.3050268446571459 edge_17_11_0_0 + 0.2273994258836301 edge_17_15_0_0
   + 0.7597757405687786 edge_17_18_0_0 - 0.6561369212635599 edge_18_16_0_0
   - 0.7902685629219957 edge_18_17_0_0
Subject To
 one_parent_1: edge_0_1_0_0 + edge_2_1_0_0 + edge_3_1_0_0 + edge_4_1_0_0
   + edge_5_1_0_0 + edge_6_1_0_0 + edge_9_1_0_0 + edge_10_1_0_0
   + edge_16_1_0_0 = 1
 consume_one_flow_unit_1: flow_0_1_0_0 - flow_1_2_0_0 - flow_1_3_0_0
   + flow_2_1_0_0 + flow_3_1_0_0 + flow_4_1_0_0 + flow_5_1_0_0
   + flow_6_1_0_0 + flow_9_1_0_0 + flow_10_1_0_0 + flow_16_1_0_0 = 1
 one_parent_2: edge_0_2_0_0 + edge_1_2_0_0 + edge_3_2_0_0 + edge_4_2_0_0
   + edge_5_2_0_0 + edge_6_2_0_0 + edge_8_2_0_0 + edge_10_2_0_0
   + edge_13_2_0_0 + edge_16_2_0_0 = 1
 consume_one_flow_unit_2: flow_0_2_0_0 + flow_1_2_0_0 - flow_2_1_0_0
   - flow_2_3_0_0 - flow_2_4_0_0 - flow_2_5_0_0 - flow_2_6_0_0
   - flow_2_7_0_0 - flow_2_8_0_0 - flow_2_9_0_0 - flow_2_10_0_0
   - flow_2_13_0_0 - flow_2_14_0_0 - flow_2_15_0_0 - flow_2_16_0_0
   - flow_2_17_0_0 - flow_2_18_0_0 + flow_3_2_0_0 + flow_4_2_0_0
   + flow_5_2_0_0 + flow_6_2_0_0 + flow_8_2_0_0 + flow_10_2_0_0
   + flow_13_2_0_0 + flow_16_2_0_0 = 1
 one_parent_3: edge_0_3_0_0 + edge_1_3_0_0 + edge_2_3_0_0 + edge_5_3_0_0
   + edge_6_3_0_0 + edge_8_3_0_0 + edge_9_3_0_0 + edge_10_3_0_0
   + edge_13_3_0_0 + edge_16_3_0_0 = 1
 consume_one_flow_unit_3: flow_0_3_0_0 + flow_1_3_0_0 + flow_2_3_0_0
   - flow_3_1_0_0 - flow_3_2_0_0 - flow_3_4_0_0 - flow_3_5_0_0
   - flow_3_6_0_0 - flow_3_7_0_0 - flow_3_8_0_0 - flow_3_9_0_0
   - flow_3_10_0_0 - flow_3_11_0_0 - flow_3_12_0_0 - flow_3_13_0_0
   - flow_3_14_0_0 - flow_3_15_0_0 - flow_3_16_0_0 - flow_3_17_0_0
   - flow_3_18_0_0 + flow_5_3_0_0 + flow_6_3_0_0 + flow_8_3_0_0
   + flow_9_3_0_0 + flow_10_3_0_0 + flow_13_3_0_0 + flow_16_3_0_0 = 1
 one_parent_4: edge_2_4_0_0 + edge_3_4_0_0 + edge_5_4_0_0 + edge_6_4_0_0
   + edge_7_4_0_0 + edge_8_4_0_0 + edge_9_4_0_0 + edge_10_4_0_0
   + edge_13_4_0_0 + edge_16_4_0_0 = 1
 consume_one_flow_unit_4: flow_2_4_0_0 + flow_3_4_0_0 - flow_4_1_0_0
   - flow_4_2_0_0 - flow_4_5_0_0 - flow_4_6_0_0 - flow_4_7_0_0
   - flow_4_8_0_0 - flow_4_9_0_0 - flow_4_10_0_0 - flow_4_11_0_0
   - flow_4_13_0_0 + flow_5_4_0_0 + flow_6_4_0_0 + flow_7_4_0_0
   + flow_8_4_0_0 + flow_9_4_0_0 + flow_10_4_0_0 + flow_13_4_0_0
   + flow_16_4_0_0 = 1
 one_parent_5: edge_0_5_0_0 + edge_2_5_0_0 + edge_3_5_0_0 + edge_4_5_0_0
   + edge_6_5_0_0 + edge_7_5_0_0 + edge_8_5_0_0 + edge_9_5_0_0
   + edge_10_5_0_0 + edge_13_5_0_0 + edge_16_5_0_0 = 1
 consume_one_flow_unit_5: flow_0_5_0_0 + flow_2_5_0_0 + flow_3_5_0_0
   + flow_4_5_0_0 - flow_5_1_0_0 - flow_5_2_0_0 - flow_5_3_0_0
   - flow_5_4_0_0 - flow_5_6_0_0 - flow_5_7_0_0 - flow_5_8_0_0
   - flow_5_9_0_0 - flow_5_10_0_0 - flow_5_11_0_0 - flow_5_13_0_0
   - flow_5_14_0_0 - flow_5_15_0_0 - flow_5_16_0_0 - flow_5_17_0_0
   - flow_5_18_0_0 + flow_6_5_0_0 + flow_7_5_0_0 + flow_8_5_0_0
   + flow_9_5_0_0 + flow_10_5_0_0 + flow_13_5_0_0 + flow_16_5_0_0 = 1
 one_parent_6: edge_2_6_0_0 + edge_3_6_0_0 + edge_4_6_0_0 + edge_5_6_0_0
   + edge_7_6_0_0 + edge_8_6_0_0 + edge_9_6_0_0 + edge_10_6_0_0
   + edge_13_6_0_0 = 1
 consume_one_flow_unit_6: flow_2_6_0_0 + flow_3_6_0_0 + flow_4_6_0_0
   + flow_5_6_0_0 - flow_6_1_0_0 - flow_6_2_0_0 - flow_6_3_0_0
   - flow_6_4_0_0 - flow_6_5_0_0 - flow_6_7_0_0 - flow_6_8_0_0
   - flow_6_9_0_0 - flow_6_10_0_0 - flow_6_13_0_0 - flow_6_18_0_0
   + flow_7_6_0_0 + flow_8_6_0_0 + flow_9_6_0_0 + flow_10_6_0_0
   + flow_13_6_0_0 = 1
 one_parent_7: edge_2_7_0_0 + edge_3_7_0_0 + edge_4_7_0_0 + edge_5_7_0_0
   + edge_6_7_0_0 + edge_8_7_0_0 + edge_9_7_0_0 + edge_10_7_0_0
   + edge_13_7_0_0 + edge_16_7_0_0 = 1
 consume_one_flow_unit_7: flow_2_7_0_0 + flow_3_7_0_0 + flow_4_7_0_0
   + flow_5_7_0_0 + flow_6_7_0_0 - flow_7_4_0_0 - flow_7_5_0_0
   - flow_7_6_0_0 - flow_7_8_0_0 + flow_8_7_0_0 + flow_9_7_0_0
   + flow_10_7_0_0 + flow_13_7_0_0 + flow_16_7_0_0 = 1
 one_parent_8: edge_2_8_0_0 + edge_3_8_0_0 + edge_4_8_0_0 + edge_5_8_0_0
   + edge_6_8_0_0 + edge_7_8_0_0 + edge_9_8_0_0 + edge_10_8_0_0
   + edge_13_8_0_0 + edge_16_8_0_0 = 1
 consume_one_flow_unit_8: flow_2_8_0_0 + flow_3_8_0_0 + flow_4_8_0_0
   + flow_5_8_0_0 + flow_6_8_0_0 + flow_7_8_0_0 - flow_8_2_0_0
   - flow_8_3_0_0 - flow_8_4_0_0 - flow_8_5_0_0 - flow_8_6_0_0
   - flow_8_7_0_0 - flow_8_9_0_0 - flow_8_10_0_0 - flow_8_11_0_0
   - flow_8_12_0_0 - flow_8_13_0_0 - flow_8_14_0_0 - flow_8_15_0_0
   - flow_8_16_0_0 - flow_8_17_0_0 - flow_8_18_0_0 + flow_9_8_0_0
   + flow_10_8_0_0 + flow_13_8_0_0 + flow_16_8_0_0 = 1
 one_parent_9: edge_2_9_0_0 + edge_3_9_0_0 + edge_4_9_0_0 + edge_5_9_0_0
   + edge_6_9_0_0 + edge_8_9_0_0 + edge_10_9_0_0 + edge_13_9_0_0
   + edge_16_9_0_0 = 1
 consume_one_flow_unit_9: flow_2_9_0_0 + flow_3_9_0_0 + flow_4_9_0_0
   + flow_5_9_0_0 + flow_6_9_0_0 + flow_8_9_0_0 - flow_9_1_0_0
   - flow_9_3_0_0 - flow_9_4_0_0 - flow_9_5_0_0 - flow_9_6_0_0
   - flow_9_7_0_0 - flow_9_8_0_0 - flow_9_10_0_0 - flow_9_11_0_0
   - flow_9_13_0_0 - flow_9_14_0_0 - flow_9_15_0_0 - flow_9_16_0_0
   - flow_9_17_0_0 - flow_9_18_0_0 + flow_10_9_0_0 + flow_13_9_0_0
   + flow_16_9_0_0 = 1
 one_parent_10: edge_0_10_0_0 + edge_2_10_0_0 + edge_3_10_0_0
   + edge_4_10_0_0 + edge_5_10_0_0 + edge_6_10_0_0 + edge_8_10_0_0
   + edge_9_10_0_0 + edge_13_10_0_0 + edge_16_10_0_0 = 1
 consume_one_flow_unit_10: flow_0_10_0_0 + flow_2_10_0_0 + flow_3_10_0_0
   + flow_4_10_0_0 + flow_5_10_0_0 + flow_6_10_0_0 + flow_8_10_0_0
   + flow_9_10_0_0 - flow_10_1_0_0 - flow_10_2_0_0 - flow_10_3_0_0
   - flow_10_4_0_0 - flow_10_5_0_0 - flow_10_6_0_0 - flow_10_7_0_0
   - flow_10_8_0_0 - flow_10_9_0_0 - flow_10_11_0_0 - flow_10_12_0_0
   - flow_10_13_0_0 - flow_10_14_0_0 - flow_10_15_0_0 - flow_10_16_0_0
   - flow_10_17_0_0 - flow_10_18_0_0 + flow_13_10_0_0 + flow_16_10_0_0 = 1
 one_parent_11: edge_3_11_0_0 + edge_4_11_0_0 + edge_5_11_0_0
   + edge_8_11_0_0 + edge_9_11_0_0 + edge_10_11_0_0 + edge_13_11_0_0
   + edge_14_11_0_0 + edge_15_11_0_0 + edge_16_11_0_0 + edge_17_11_0_0 = 1
 consume_one_flow_unit_11: flow_3_11_0_0 + flow_4_11_0_0 + flow_5_11_0_0
   + flow_8_11_0_0 + flow_9_11_0_0 + flow_10_11_0_0 - flow_11_13_0_0
   - flow_11_14_0_0 - flow_11_15_0_0 - flow_11_16_0_0 - flow_11_17_0_0
   + flow_13_11_0_0 + flow_14_11_0_0 + flow_15_11_0_0 + flow_16_11_0_0
   + flow_17_11_0_0 = 1
 one_parent_12: edge_3_12_0_0 + edge_8_12_0_0 + edge_10_12_0_0
   + edge_13_12_0_0 + edge_16_12_0_0 = 1
 consume_one_flow_unit_12: flow_3_12_0_0 + flow_8_12_0_0 + flow_10_12_0_0
   - flow_12_13_0_0 - flow_12_15_0_0 + flow_13_12_0_0 + flow_16_12_0_0 = 1
 one_parent_13: edge_2_13_0_0 + edge_3_13_0_0 + edge_4_13_0_0
   + edge_5_13_0_0 + edge_6_13_0_0 + edge_8_13_0_0 + edge_9_13_0_0
   + edge_10_13_0_0 + edge_11_13_0_0 + edge_12_13_0_0 + edge_13_13_0_0
   + edge_14_13_0_0 + edge_15_13_0_0 + edge_16_13_0_0 = 1
 consume_one_flow_unit_13: flow_2_13_0_0 + flow_3_13_0_0 + flow_4_13_0_0
   + flow_5_13_0_0 + flow_6_13_0_0 + flow_8_13_0_0 + flow_9_13_0_0
   + flow_10_13_0_0 + flow_11_13_0_0 + flow_12_13_0_0 - flow_13_2_0_0
   - flow_13_3_0_0 - flow_13_4_0_0 - flow_13_5_0_0 - flow_13_6_0_0
   - flow_13_7_0_0 - flow_13_8_0_0 - flow_13_9_0_0 - flow_13_10_0_0
   - flow_13_11_0_0 - flow_13_12_0_0 - flow_13_14_0_0 - flow_13_15_0_0
   - flow_13_16_0_0 - flow_13_17_0_0 - flow_13_18_0_0 + flow_14_13_0_0
   + flow_15_13_0_0 + flow_16_13_0_0 = 1
 one_parent_14: edge_2_14_0_0 + edge_3_14_0_0 + edge_5_14_0_0
   + edge_8_14_0_0 + edge_9_14_0_0 + edge_10_14_0_0 + edge_11_14_0_0
   + edge_13_14_0_0 + edge_15_14_0_0 + edge_16_14_0_0 = 1
 consume_one_flow_unit_14: flow_2_14_0_0 + flow_3_14_0_0 + flow_5_14_0_0
   + flow_8_14_0_0 + flow_9_14_0_0 + flow_10_14_0_0 + flow_11_14_0_0
   + flow_13_14_0_0 - flow_14_11_0_0 - flow_14_13_0_0 - flow_14_15_0_0
   - flow_14_16_0_0 - flow_14_17_0_0 + flow_15_14_0_0 + flow_16_14_0_0 = 1
 one_parent_15: edge_2_15_0_0 + edge_3_15_0_0 + edge_5_15_0_0
   + edge_8_15_0_0 + edge_9_15_0_0 + edge_10_15_0_0 + edge_11_15_0_0
   + edge_12_15_0_0 + edge_13_15_0_0 + edge_14_15_0_0 + edge_16_15_0_0
   + edge_17_15_0_0 = 1
 consume_one_flow_unit_15: flow_2_15_0_0 + flow_3_15_0_0 + flow_5_15_0_0
   + flow_8_15_0_0 + flow_9_15_0_0 + flow_10_15_0_0 + flow_11_15_0_0
   + flow_12_15_0_0 + flow_13_15_0_0 + flow_14_15_0_0 - flow_15_11_0_0
   - flow_15_13_0_0 - flow_15_14_0_0 - flow_15_16_0_0 - flow_15_17_0_0
   - flow_15_18_0_0 + flow_16_15_0_0 + flow_17_15_0_0 = 1
 one_parent_16: edge_0_16_0_0 + edge_2_16_0_0 + edge_3_16_0_0
   + edge_5_16_0_0 + edge_8_16_0_0 + edge_9_16_0_0 + edge_10_16_0_0
   + edge_11_16_0_0 + edge_13_16_0_0 + edge_14_16_0_0 + edge_15_16_0_0
   + edge_18_16_0_0 = 1
 consume_one_flow_unit_16: flow_0_16_0_0 + flow_2_16_0_0 + flow_3_16_0_0
   + flow_5_16_0_0 + flow_8_16_0_0 + flow_9_16_0_0 + flow_10_16_0_0
   + flow_11_16_0_0 + flow_13_16_0_0 + flow_14_16_0_0 + flow_15_16_0_0
   - flow_16_1_0_0 - flow_16_2_0_0 - flow_16_3_0_0 - flow_16_4_0_0
   - flow_16_5_0_0 - flow_16_7_0_0 - flow_16_8_0_0 - flow_16_9_0_0
   - flow_16_10_0_0 - flow_16_11_0_0 - flow_16_12_0_0 - flow_16_13_0_0
   - flow_16_14_0_0 - flow_16_15_0_0 - flow_16_17_0_0 - flow_16_18_0_0
   + flow_18_16_0_0 = 1
 one_parent_17: edge_2_17_0_0 + edge_3_17_0_0 + edge_5_17_0_0
   + edge_8_17_0_0 + edge_9_17_0_0 + edge_10_17_0_0 + edge_11_17_0_0
   + edge_13_17_0_0 + edge_14_17_0_0 + edge_15_17_0_0 + edge_16_17_0_0
   + edge_18_17_0_0 = 1
 consume_one_flow_unit_17: flow_2_17_0_0 + flow_3_17_0_0 + flow_5_17_0_0
   + flow_8_17_0_0 + flow_9_17_0_0 + flow_10_17_0_0 + flow_11_17_0_0
   + flow_13_17_0_0 + flow_14_17_0_0 + flow_15_17_0_0 + flow_16_17_0_0
   - flow_17_11_0_0 - flow_17_15_0_0 - flow_17_18_0_0 + flow_18_17_0_0 = 1
 one_parent_18: edge_2_18_0_0 + edge_3_18_0_0 + edge_5_18_0_0
   + edge_6_18_0_0 + edge_8_18_0_0 + edge_9_18_0_0 + edge_10_18_0_0
   + edge_13_18_0_0 + edge_15_18_0_0 + edge_16_18_0_0 + edge_17_18_0_0 = 1
 consume_one_flow_unit_18: flow_2_18_0_0 + flow_3_18_0_0 + flow_5_18_0_0
   + flow_6_18_0_0 + flow_8_18_0_0 + flow_9_18_0_0 + flow_10_18_0_0
   + flow_13_18_0_0 + flow_15_18_0_0 + flow_16_18_0_0 + flow_17_18_0_0
   - flow_18_16_0_0 - flow_18_17_0_0 = 1
 root_flow: flow_0_1_0_0 + flow_0_2_0_0 + flow_0_3_0_0 + flow_0_5_0_0
   + flow_0_10_0_0 + flow_0_16_0_0 = 18
 inactive_no_flow_0_1_0_0: flow_0_1_0_0 - 1000 edge_0_1_0_0 <= 0
 inactive_no_flow_0_2_0_0: flow_0_2_0_0 - 1000 edge_0_2_0_0 <= 0
 inactive_no_flow_0_3_0_0: flow_0_3_0_0 - 1000 edge_0_3_0_0 <= 0
 inactive_no_flow_0_5_0_0: flow_0_5_0_0 - 1000 edge_0_5_0_0 <= 0
 inactive_no_flow_0_10_0_0: flow_0_10_0_0 - 1000 edge_0_10_0_0 <= 0
 inactive_no_flow_0_16_0_0: flow_0_16_0_0 - 1000 edge_0_16_0_0 <= 0
 inactive_no_flow_1_2_0_0: flow_1_2_0_0 - 1000 edge_1_2_0_0 <= 0
 inactive_no_flow_1_3_0_0: flow_1_3_0_0 - 1000 edge_1_3_0_0 <= 0
 inactive_no_flow_2_1_0_0: flow_2_1_0_0 - 1000 edge_2_1_0_0 <= 0
 inactive_no_flow_2_3_0_0: flow_2_3_0_0 - 1000 edge_2_3_0_0 <= 0
 inactive_no_flow_2_4_0_0: flow_2_4_0_0 - 1000 edge_2_4_0_0 <= 0
 inactive_no_flow_2_5_0_0: flow_2_5_0_0 - 1000 edge_2_5_0_0 <= 0
 inactive_no_flow_2_6_0_0: flow_2_6_0_0 - 1000 edge_2_6_0_0 <= 0
 inactive_no_flow_2_7_0_0: flow_2_7_0_0 - 1000 edge_2_7_0_0 <= 0
 inactive_no_flow_2_8_0_0: flow_2_8_0_0 - 1000 edge_2_8_0_0 <= 0
 inactive_no_flow_2_9_0_0: flow_2_9_0_0 - 1000 edge_2_9_0_0 <= 0
 inactive_no_flow_2_10_0_0: flow_2_10_0_0 - 1000 edge_2_10_0_0 <= 0
 inactive_no_flow_2_13_0_0: flow_2_13_0_0 - 1000 edge_2_13_0_0 <= 0
 inactive_no_flow_2_14_0_0: flow_2_14_0_0 - 1000 edge_2_14_0_0 <= 0
 inactive_no_flow_2_15_0_0: flow_2_15_0_0 - 1000 edge_2_15_0_0 <= 0
 inactive_no_flow_2_16_0_0: flow_2_16_0_0 - 1000 edge_2_16_0_0 <= 0
 inactive_no_flow_2_17_0_0: flow_2_17_0_0 - 1000 edge_2_17_0_0 <= 0
 inactive_no_flow_2_18_0_0: flow_2_18_0_0 - 1000 edge_2_18_0_0 <= 0
 inactive_no_flow_3_1_0_0: flow_3_1_0_0 - 1000 edge_3_1_0_0 <= 0
 inactive_no_flow_3_2_0_0: flow_3_2_0_0 - 1000 edge_3_2_0_0 <= 0
 inactive_no_flow_3_4_0_0: flow_3_4_0_0 - 1000 edge_3_4_0_0 <= 0
 inactive_no_flow_3_5_0_0: flow_3_5_0_0 - 1000 edge_3_5_0_0 <= 0
 inactive_no_flow_3_6_0_0: flow_3_6_0_0 - 1000 edge_3_6_0_0 <= 0
 inactive_no_flow_3_7_0_0: flow_3_7_0_0 - 1000 edge_3_7_0_0 <= 0
 inactive_no_flow_3_8_0_0: flow_3_8_0_0 - 1000 edge_3_8_0_0 <= 0
 inactive_no_flow_3_9_0_0: flow_3_9_0_0 - 1000 edge_3_9_0_0 <= 0
 inactive_no_flow_3_10_0_0: flow_3_10_0_0 - 1000 edge_3_10_0_0 <= 0
 inactive_no_flow_3_11_0_0: flow_3_11_0_0 - 1000 edge_3_11_0_0 <= 0
 inactive_no_flow_3_12_0_0: flow_3_12_0_0 - 1000 edge_3_12_0_0 <= 0
 inactive_no_flow_3_13_0_0: flow_3_13_0_0 - 1000 edge_3_13_0_0 <= 0
 inactive_no_flow_3_14_0_0: flow_3_14_0_0 - 1000 edge_3_14_0_0 <= 0
 inactive_no_flow_3_15_0_0: flow_3_15_0_0 - 1000 edge_3_15_0_0 <= 0
 inactive_no_flow_3_16_0_0: flow_3_16_0_0 - 1000 edge_3_16_0_0 <= 0
 inactive_no_flow_3_17_0_0: flow_3_17_0_0 - 1000 edge_3_17_0_0 <= 0
 inactive_no_flow_3_18_0_0: flow_3_18_0_0 - 1000 edge_3_18_0_0 <= 0
 inactive_no_flow_4_1_0_0: flow_4_1_0_0 - 1000 edge_4_1_0_0 <= 0
 inactive_no_flow_4_2_0_0: flow_4_2_0_0 - 1000 edge_4_2_0_0 <= 0
 inactive_no_flow_4_5_0_0: flow_4_5_0_0 - 1000 edge_4_5_0_0 <= 0
 inactive_no_flow_4_6_0_0: flow_4_6_0_0 - 1000 edge_4_6_0_0 <= 0
 inactive_no_flow_4_7_0_0: flow_4_7_0_0 - 1000 edge_4_7_0_0 <= 0
 inactive_no_flow_4_8_0_0: flow_4_8_0_0 - 1000 edge_4_8_0_0 <= 0
 inactive_no_flow_4_9_0_0: flow_4_9_0_0 - 1000 edge_4_9_0_0 <= 0
 inactive_no_flow_4_10_0_0: flow_4_10_0_0 - 1000 edge_4_10_0_0 <= 0
 inactive_no_flow_4_11_0_0: flow_4_11_0_0 - 1000 edge_4_11_0_0 <= 0
 inactive_no_flow_4_13_0_0: flow_4_13_0_0 - 1000 edge_4_13_0_0 <= 0
 inactive_no_flow_5_1_0_0: flow_5_1_0_0 - 1000 edge_5_1_0_0 <= 0
 inactive_no_flow_5_2_0_0: flow_5_2_0_0 - 1000 edge_5_2_0_0 <= 0
 inactive_no_flow_5_3_0_0: flow_5_3_0_0 - 1000 edge_5_3_0_0 <= 0
 inactive_no_flow_5_4_0_0: flow_5_4_0_0 - 1000 edge_5_4_0_0 <= 0
 inactive_no_flow_5_6_0_0: flow_5_6_0_0 - 1000 edge_5_6_0_0 <= 0
 inactive_no_flow_5_7_0_0: flow_5_7_0_0 - 1000 edge_5_7_0_0 <= 0
 inactive_no_flow_5_8_0_0: flow_5_8_0_0 - 1000 edge_5_8_0_0 <= 0
 inactive_no_flow_5_9_0_0: flow_5_9_0_0 - 1000 edge_5_9_0_0 <= 0
 inactive_no_flow_5_10_0_0: flow_5_10_0_0 - 1000 edge_5_10_0_0 <= 0
 inactive_no_flow_5_11_0_0: flow_5_11_0_0 - 1000 edge_5_11_0_0 <= 0
 inactive_no_flow_5_13_0_0: flow_5_13_0_0 - 1000 edge_5_13_0_0 <= 0
 inactive_no_flow_5_14_0_0: flow_5_14_0_0 - 1000 edge_5_14_0_0 <= 0
 inactive_no_flow_5_15_0_0: flow_5_15_0_0 - 1000 edge_5_15_0_0 <= 0
 inactive_no_flow_5_16_0_0: flow_5_16_0_0 - 1000 edge_5_16_0_0 <= 0
 inactive_no_flow_5_17_0_0: flow_5_17_0_0 - 1000 edge_5_17_0_0 <= 0
 inactive_no_flow_5_18_0_0: flow_5_18_0_0 - 1000 edge_5_18_0_0 <= 0
 inactive_no_flow_6_1_0_0: flow_6_1_0_0 - 1000 edge_6_1_0_0 <= 0
 inactive_no_flow_6_2_0_0: flow_6_2_0_0 - 1000 edge_6_2_0_0 <= 0
 inactive_no_flow_6_3_0_0: flow_6_3_0_0 - 1000 edge_6_3_0_0 <= 0
 inactive_no_flow_6_4_0_0: flow_6_4_0_0 - 1000 edge_6_4_0_0 <= 0
 inactive_no_flow_6_5_0_0: flow_6_5_0_0 - 1000 edge_6_5_0_0 <= 0
 inactive_no_flow_6_7_0_0: flow_6_7_0_0 - 1000 edge_6_7_0_0 <= 0
 inactive_no_flow_6_8_0_0: flow_6_8_0_0 - 1000 edge_6_8_0_0 <= 0
 inactive_no_flow_6_9_0_0: flow_6_9_0_0 - 1000 edge_6_9_0_0 <= 0
 inactive_no_flow_6_10_0_0: flow_6_10_0_0 - 1000 edge_6_10_0_0 <= 0
 inactive_no_flow_6_13_0_0: flow_6_13_0_0 - 1000 edge_6_13_0_0 <= 0
 inactive_no_flow_6_18_0_0: flow_6_18_0_0 - 1000 edge_6_18_0_0 <= 0
 inactive_no_flow_7_4_0_0: flow_7_4_0_0 - 1000 edge_7_4_0_0 <= 0
 inactive_no_flow_7_5_0_0: flow_7_5_0_0 - 1000 edge_7_5_0_0 <= 0
 inactive_no_flow_7_6_0_0: flow_7_6_0_0 - 1000 edge_7_6_0_0 <= 0
 inactive_no_flow_7_8_0_0: flow_7_8_0_0 - 1000 edge_7_8_0_0 <= 0
 inactive_no_flow_8_2_0_0: flow_8_2_0_0 - 1000 edge_8_2_0_0 <= 0
 inactive_no_flow_8_3_0_0: flow_8_3_0_0 - 1000 edge_8_3_0_0 <= 0
 inactive_no_flow_8_4_0_0: flow_8_4_0_0 - 1000 edge_8_4_0_0 <= 0
 inactive_no_flow_8_5_0_0: flow_8_5_0_0 - 1000 edge_8_5_0_0 <= 0
 inactive_no_flow_8_6_0_0: flow_8_6_0_0 - 1000 edge_8_6_0_0 <= 0
 inactive_no_flow_8_7_0_0: flow_8_7_0_0 - 1000 edge_8_7_0_0 <= 0
 inactive_no_flow_8_9_0_0: flow_8_9_0_0 - 1000 edge_8_9_0_0 <= 0
 inactive_no_flow_8_10_0_0: flow_8_10_0_0 - 1000 edge_8_10_0_0 <= 0
 inactive_no_flow_8_11_0_0: flow_8_11_0_0 - 1000 edge_8_11_0_0 <= 0
 inactive_no_flow_8_12_0_0: flow_8_12_0_0 - 1000 edge_8_12_0_0 <= 0
 inactive_no_flow_8_13_0_0: flow_8_13_0_0 - 1000 edge_8_13_0_0 <= 0
 inactive_no_flow_8_14_0_0: flow_8_14_0_0 - 1000 edge_8_14_0_0 <= 0
 inactive_no_flow_8_15_0_0: flow_8_15_0_0 - 1000 edge_8_15_0_0 <= 0
 inactive_no_flow_8_16_0_0: flow_8_16_0_0 - 1000 edge_8_16_0_0 <= 0
 inactive_no_flow_8_17_0_0: flow_8_17_0_0 - 1000 edge_8_17_0_0 <= 0
 inactive_no_flow_8_18_0_0: flow_8_18_0_0 - 1000 edge_8_18_0_0 <= 0
 inactive_no_flow_9_1_0_0: flow_9_1_0_0 - 1000 edge_9_1_0_0 <= 0
 inactive_no_flow_9_3_0_0: flow_9_3_0_0 - 1000 edge_9_3_0_0 <= 0
 inactive_no_flow_9_4_0_0: flow_9_4_0_0 - 1000 edge_9_4_0_0 <= 0
 inactive_no_flow_9_5_0_0: flow_9_5_0_0 - 1000 edge_9_5_0_0 <= 0
 inactive_no_flow_9_6_0_0: flow_9_6_0_0 - 1000 edge_9_6_0_0 <= 0
 inactive_no_flow_9_7_0_0: flow_9_7_0_0 - 1000 edge_9_7_0_0 <= 0
 inactive_no_flow_9_8_0_0: flow_9_8_0_0 - 1000 edge_9_8_0_0 <= 0
 inactive_no_flow_9_10_0_0: flow_9_10_0_0 - 1000 edge_9_10_0_0 <= 0
 inactive_no_flow_9_11_0_0: flow_9_11_0_0 - 1000 edge_9_11_0_0 <= 0
 inactive_no_flow_9_13_0_0: flow_9_13_0_0 - 1000 edge_9_13_0_0 <= 0
 inactive_no_flow_9_14_0_0: flow_9_14_0_0 - 1000 edge_9_14_0_0 <= 0
 inactive_no_flow_9_15_0_0: flow_9_15_0_0 - 1000 edge_9_15_0_0 <= 0
 inactive_no_flow_9_16_0_0: flow_9_16_0_0 - 1000 edge_9_16_0_0 <= 0
 inactive_no_flow_9_17_0_0: flow_9_17_0_0 - 1000 edge_9_17_0_0 <= 0
 inactive_no_flow_9_18_0_0: flow_9_18_0_0 - 1000 edge_9_18_0_0 <= 0
 inactive_no_flow_10_1_0_0: flow_10_1_0_0 - 1000 edge_10_1_0_0 <= 0
 inactive_no_flow_10_2_0_0: flow_10_2_0_0 - 1000 edge_10_2_0_0 <= 0
 inactive_no_flow_10_3_0_0: flow_10_3_0_0 - 1000 edge_10_3_0_0 <= 0
 inactive_no_flow_10_4_0_0: flow_10_4_0_0 - 1000 edge_10_4_0_0 <= 0
 inactive_no_flow_10_5_0_0: flow_10_5_0_0 - 1000 edge_10_5_0_0 <= 0
 inactive_no_flow_10_6_0_0: flow_10_6_0_0 - 1000 edge_10_6_0_0 <= 0
 inactive_no_flow_10_7_0_0: flow_10_7_0_0 - 1000 edge_10_7_0_0 <= 0
 inactive_no_flow_10_8_0_0: flow_10_8_0_0 - 1000 edge_10_8_0_0 <= 0
 inactive_no_flow_10_9_0_0: flow_10_9_0_0 - 1000 edge_10_9_0_0 <= 0
 inactive_no_flow_10_11_0_0: flow_10_11_0_0 - 1000 edge_10_11_0_0 <= 0
 inactive_no_flow_10_12_0_0: flow_10_12_0_0 - 1000 edge_10_12_0_0 <= 0
 inactive_no_flow_10_13_0_0: flow_10_13_0_0 - 1000 edge_10_13_0_0 <= 0
 inactive_no_flow_10_14_0_0: flow_10_14_0_0 - 1000 edge_10_14_0_0 <= 0
 inactive_no_flow_10_15_0_0: flow_10_15_0_0 - 1000 edge_10_15_0_0 <= 0
 inactive_no_flow_10_16_0_0: flow_10_16_0_0 - 1000 edge_10_16_0_0 <= 0
 inactive_no_flow_10_17_0_0: flow_10_17_0_0 - 1000 edge_10_17_0_0 <= 0
 inactive_no_flow_10_18_0_0: flow_10_18_0_0 - 1000 edge_10_18_0_0 <= 0
 inactive_no_flow_11_13_0_0: flow_11_13_0_0 - 1000 edge_11_13_0_0 <= 0
 inactive_no_flow_11_14_0_0: flow_11_14_0_0 - 1000 edge_11_14_0_0 <= 0
 inactive_no_flow_11_15_0_0: flow_11_15_0_0 - 1000 edge_11_15_0_0 <= 0
 inactive_no_flow_11_16_0_0: flow_11_16_0_0 - 1000 edge_11_16_0_0 <= 0
 inactive_no_flow_11_17_0_0: flow_11_17_0_0 - 1000 edge_11_17_0_0 <= 0
 inactive_no_flow_12_13_0_0: flow_12_13_0_0 - 1000 edge_12_13_0_0 <= 0
 inactive_no_flow_12_15_0_0: flow_12_15_0_0 - 1000 edge_12_15_0_0 <= 0
 inactive_no_flow_13_2_0_0: flow_13_2_0_0 - 1000 edge_13_2_0_0 <= 0
 inactive_no_flow_13_3_0_0: flow_13_3_0_0 - 1000 edge_13_3_0_0 <= 0
 inactive_no_flow_13_4_0_0: flow_13_4_0_0 - 1000 edge_13_4_0_0 <= 0
 inactive_no_flow_13_5_0_0: flow_13_5_0_0 - 1000 edge_13_5_0_0 <= 0
 inactive_no_flow_13_6_0_0: flow_13_6_0_0 - 1000 edge_13_6_0_0 <= 0
 inactive_no_flow_13_7_0_0: flow_13_7_0_0 - 1000 edge_13_7_0_0 <= 0
 inactive_no_flow_13_8_0_0: flow_13_8_0_0 - 1000 edge_13_8_0_0 <= 0
 inactive_no_flow_13_9_0_0: flow_13_9_0_0 - 1000 edge_13_9_0_0 <= 0
 inactive_no_flow_13_10_0_0: flow_13_10_0_0 - 1000 edge_13_10_0_0 <= 0
 inactive_no_flow_13_11_0_0: flow_13_11_0_0 - 1000 edge_13_11_0_0 <= 0
 inactive_no_flow_13_12_0_0: flow_13_12_0_0 - 1000 edge_13_12_0_0 <= 0
 inactive_no_flow_13_13_0_0: flow_13_13_0_0 - 1000 edge_13_13_0_0 <= 0
 inactive_no_flow_13_14_0_0: flow_13_14_0_0 - 1000 edge_13_14_0_0 <= 0
 inactive_no_flow_13_15_0_0: flow_13_15_0_0 - 1000 edge_13_15_0_0 <= 0
 inactive_no_flow_13_16_0_0: flow_13_16_0_0 - 1000 edge_13_16_0_0 <= 0
 inactive_no_flow_13_17_0_0: flow_13_17_0_0 - 1000 edge_13_17_0_0 <= 0
 inactive_no_flow_13_18_0_0: flow_13_18_0_0 - 1000 edge_13_18_0_0 <= 0
 inactive_no_flow_14_11_0_0: flow_14_11_0_0 - 1000 edge_14_11_0_0 <= 0
 inactive_no_flow_14_13_0_0: flow_14_13_0_0 - 1000 edge_14_13_0_0 <= 0
 inactive_no_flow_14_15_0_0: flow_14_15_0_0 - 1000 edge_14_15_0_0 <= 0
 inactive_no_flow_14_16_0_0: flow_14_16_0_0 - 1000 edge_14_16_0_0 <= 0
 inactive_no_flow_14_17_0_0: flow_14_17_0_0 - 1000 edge_14_17_0_0 <= 0
 inactive_no_flow_15_11_0_0: flow_15_11_0_0 - 1000 edge_15_11_0_0 <= 0
 inactive_no_flow_15_13_0_0: flow_15_13_0_0 - 1000 edge_15_13_0_0 <= 0
 inactive_no_flow_15_14_0_0: flow_15_14_0_0 - 1000 edge_15_14_0_0 <= 0
 inactive_no_flow_15_16_0_0: flow_15_16_0_0 - 1000 edge_15_16_0_0 <= 0
 inactive_no_flow_15_17_0_0: flow_15_17_0_0 - 1000 edge_15_17_0_0 <= 0
 inactive_no_flow_15_18_0_0: flow_15_18_0_0 - 1000 edge_15_18_0_0 <= 0
 inactive_no_flow_16_1_0_0: flow_16_1_0_0 - 1000 edge_16_1_0_0 <= 0
 inactive_no_flow_16_2_0_0: flow_16_2_0_0 - 1000 edge_16_2_0_0 <= 0
 inactive_no_flow_16_3_0_0: flow_16_3_0_0 - 1000 edge_16_3_0_0 <= 0
 inactive_no_flow_16_4_0_0: flow_16_4_0_0 - 1000 edge_16_4_0_0 <= 0
 inactive_no_flow_16_5_0_0: flow_16_5_0_0 - 1000 edge_16_5_0_0 <= 0
 inactive_no_flow_16_7_0_0: flow_16_7_0_0 - 1000 edge_16_7_0_0 <= 0
 inactive_no_flow_16_8_0_0: flow_16_8_0_0 - 1000 edge_16_8_0_0 <= 0
 inactive_no_flow_16_9_0_0: flow_16_9_0_0 - 1000 edge_16_9_0_0 <= 0
 inactive_no_flow_16_10_0_0: flow_16_10_0_0 - 1000 edge_16_10_0_0 <= 0
 inactive_no_flow_16_11_0_0: flow_16_11_0_0 - 1000 edge_16_11_0_0 <= 0
 inactive_no_flow_16_12_0_0: flow_16_12_0_0 - 1000 edge_16_12_0_0 <= 0
 inactive_no_flow_16_13_0_0: flow_16_13_0_0 - 1000 edge_16_13_0_0 <= 0
 inactive_no_flow_16_14_0_0: flow_16_14_0_0 - 1000 edge_16_14_0_0 <= 0
 inactive_no_flow_16_15_0_0: flow_16_15_0_0 - 1000 edge_16_15_0_0 <= 0
 inactive_no_flow_16_17_0_0: flow_16_17_0_0 - 1000 edge_16_17_0_0 <= 0
 inactive_no_flow_16_18_0_0: flow_16_18_0_0 - 1000 edge_16_18_0_0 <= 0
 inactive_no_flow_17_11_0_0: flow_17_11_0_0 - 1000 edge_17_11_0_0 <= 0
 inactive_no_flow_17_15_0_0: flow_17_15_0_0 - 1000 edge_17_15_0_0 <= 0
 inactive_no_flow_17_18_0_0: flow_17_18_0_0 - 1000 edge_17_18_0_0 <= 0
 inactive_no_flow_18_16_0_0: flow_18_16_0_0 - 1000 edge_18_16_0_0 <= 0
 inactive_no_flow_18_17_0_0: flow_18_17_0_0 - 1000 edge_18_17_0_0 <= 0
Bounds
Binaries
 edge_0_1_0_0 edge_0_2_0_0 edge_0_3_0_0 edge_0_5_0_0 edge_0_10_0_0
 edge_0_16_0_0 edge_1_2_0_0 edge_1_3_0_0 edge_2_1_0_0 edge_2_3_0_0
 edge_2_4_0_0 edge_2_5_0_0 edge_2_6_0_0 edge_2_7_0_0 edge_2_8_0_0
 edge_2_9_0_0 edge_2_10_0_0 edge_2_13_0_0 edge_2_14_0_0 edge_2_15_0_0
 edge_2_16_0_0 edge_2_17_0_0 edge_2_18_0_0 edge_3_1_0_0 edge_3_2_0_0
 edge_3_4_0_0 edge_3_5_0_0 edge_3_6_0_0 edge_3_7_0_0 edge_3_8_0_0
 edge_3_9_0_0 edge_3_10_0_0 edge_3_11_0_0 edge_3_12_0_0 edge_3_13_0_0
 edge_3_14_0_0 edge_3_15_0_0 edge_3_16_0_0 edge_3_17_0_0 edge_3_18_0_0
 edge_4_1_0_0 edge_4_2_0_0 edge_4_5_0_0 edge_4_6_0_0 edge_4_7_0_0
 edge_4_8_0_0 edge_4_9_0_0 edge_4_10_0_0 edge_4_11_0_0 edge_4_13_0_0
 edge_5_1_0_0 edge_5_2_0_0 edge_5_3_0_0 edge_5_4_0_0 edge_5_6_0_0
 edge_5_7_0_0 edge_5_8_0_0 edge_5_9_0_0 edge_5_10_0_0 edge_5_11_0_0
 edge_5_13_0_0 edge_5_14_0_0 edge_5_15_0_0 edge_5_16_0_0 edge_5_17_0_0
 edge_5_18_0_0 edge_6_1_0_0 edge_6_2_0_0 edge_6_3_0_0 edge_6_4_0_0
 edge_6_5_0_0 edge_6_7_0_0 edge_6_8_0_0 edge_6_9_0_0 edge_6_10_0_0
 edge_6_13_0_0 edge_6_18_0_0 edge_7_4_0_0 edge_7_5_0_0 edge_7_6_0_0
 edge_7_8_0_0 edge_8_2_0_0 edge_8_3_0_0 edge_8_4_0_0 edge_8_5_0_0
 edge_8_6_0_0 edge_8_7_0_0 edge_8_9_0_0 edge_8_10_0_0 edge_8_11_0_0
 edge_8_12_0_0 edge_8_13_0_0 edge_8_14_0_0 edge_8_15_0_0 edge_8_16_0_0
 edge_8_17_0_0 edge_8_18_0_0 edge_9_1_0_0 edge_9_3_0_0 edge_9_4_0_0
 edge_9_5_0_0 edge_9_6_0_0 edge_9_7_0_0 edge_9_8_0_0 edge_9_10_0_0
 edge_9_11_0_0 edge_9_13_0_0 edge_9_14_0_0 edge_9_15_0_0 edge_9_16_0_0
 edge_9_17_0_0 edge_9_18_0_0 edge_10_1_0_0 edge_10_2_0_0 edge_10_3_0_0
 edge_10_4_0_0 edge_10_5_0_0 edge_10_6_0_0 edge_10_7_0_0 edge_10_8_0_0
 edge_10_9_0_0 edge_10_11_0_0 edge_10_12_0_0 edge_10_13_0_0 edge_10_14_0_0
 edge_10_15_0_0 edge_10_16_0_0 edge_10_17_0_0 edge_10_18_0_0 edge_11_13_0_0
 edge_11_14_0_0 edge_11_15_0_0 edge_11_16_0_0 edge_11_17_0_0 edge_12_13_0_0
 edge_12_15_0_0 edge_13_2_0_0 edge_13_3_0_0 edge_13_4_0_0 edge_13_5_0_0
 edge_13_6_0_0 edge_13_7_0_0 edge_13_8_0_0 edge_13_9_0_0 edge_13_10_0_0
 edge_13_11_0_0 edge_13_12_0_0 edge_13_13_0_0 edge_13_14_0_0 edge_13_15_0_0
 edge_13_16_0_0 edge_13_17_0_0 edge_13_18_0_0 edge_14_11_0_0 edge_14_13_0_0
 edge_14_15_0_0 edge_14_16_0_0 edge_14_17_0_0 edge_15_11_0_0 edge_15_13_0_0
 edge_15_14_0_0 edge_15_16_0_0 edge_15_17_0_0 edge_15_18_0_0 edge_16_1_0_0
 edge_16_2_0_0 edge_16_3_0_0 edge_16_4_0_0 edge_16_5_0_0 edge_16_7_0_0
 edge_16_8_0_0 edge_16_9_0_0 edge_16_10_0_0 edge_16_11_0_0 edge_16_12_0_0
 edge_16_13_0_0 edge_16_14_0_0 edge_16_15_0_0 edge_16_17_0_0 edge_16_18_0_0
 edge_17_11_0_0 edge_17_15_0_0 edge_17_18_0_0 edge_18_16_0_0 edge_18_17_0_0
End
